(set-logic ALL)
(declare-const k Int)
(declare-fun s () (_ BitVec k))
(declare-fun t () (_ BitVec k))
(assert (distinct (bvadd s (bvudiv (_ bv0 k) (bvnot s))) (bvudiv (_ bv0 k) (bvnot s))))
(check-sat)
